; PUSH 0x00 DUP1 DUP3 ADD => PUSH 0x00 DUP2
(set-option :produce-proofs true)
; 
(set-info :status unknown)
(declare-fun storage_t ((_ BitVec 256) Int (_ BitVec 256)) (_ BitVec 256))
(declare-fun storage_s ((_ BitVec 256) Int (_ BitVec 256)) (_ BitVec 256))
(declare-fun exc_halt_t (Int) Bool)
(declare-fun exc_halt_s (Int) Bool)
(declare-fun stack_t ((_ BitVec 256) Int (_ BitVec 6)) (_ BitVec 256))
(declare-fun stack_s ((_ BitVec 256) Int (_ BitVec 6)) (_ BitVec 256))
(declare-fun sc_t (Int) (_ BitVec 6))
(declare-fun sc_s (Int) (_ BitVec 6))
(declare-fun used_gas_t ((_ BitVec 256) Int) Int)
(declare-fun used_gas_s ((_ BitVec 256) Int) Int)
(assert
 (exists ((x_0 (_ BitVec 256)) )(let (($x4124 (forall ((w (_ BitVec 256)) )(let ((?x7575 (storage_t x_0 2 w)))
 (let ((?x5964 (storage_s x_0 4 w)))
 (= ?x5964 ?x7575))))
 ))
 (let (($x5252 (exc_halt_t 2)))
 (let (($x7172 (exc_halt_s 4)))
 (let (($x773 (= $x7172 $x5252)))
 (let (($x4972 (forall ((n (_ BitVec 6)) )(let ((?x2274 (stack_t x_0 2 n)))
 (let ((?x10572 (stack_s x_0 4 n)))
 (let (($x11372 (= ?x10572 ?x2274)))
 (or (bvsle (sc_t 2) n) $x11372)))))
 ))
 (let ((?x2714 (sc_t 2)))
 (let ((?x4305 (sc_s 4)))
 (let (($x8664 (= ?x4305 ?x2714)))
 (let ((?x11161 (used_gas_t x_0 0)))
 (let ((?x6133 (used_gas_s x_0 0)))
 (let (($x10245 (= ?x6133 ?x11161)))
 (let (($x4521 (forall ((w (_ BitVec 256)) )(let ((?x9094 (storage_t x_0 0 w)))
 (let ((?x828 (storage_s x_0 0 w)))
 (= ?x828 ?x9094))))
 ))
 (let (($x56 (exc_halt_t 0)))
 (let (($x57 (exc_halt_s 0)))
 (let (($x58 (= $x57 $x56)))
 (let (($x51 (forall ((n (_ BitVec 6)) )(let ((?x63 (sc_t 0)))
 (let (($x3267 (bvsle ?x63 n)))
 (let ((?x11774 (stack_t x_0 0 n)))
 (let ((?x7914 (stack_s x_0 0 n)))
 (let (($x2328 (= ?x7914 ?x11774)))
 (or $x2328 $x3267)))))))
 ))
 (let ((?x63 (sc_t 0)))
 (let ((?x72 (sc_s 0)))
 (let (($x73 (= ?x72 ?x63)))
 (let (($x3508 (exc_halt_t 1)))
 (let (($x10164 (or (not (bvsle (_ bv0 6) (bvadd (_ bv62 6) (sc_t 1)))) (not (= ((_ extract 6 6) (bvadd (_ bv1 7) (concat (_ bv0 1) (sc_t 1)))) (_ bv0 1))) $x3508)))
 (let (($x9331 (= $x5252 $x10164)))
 (let (($x1091 (forall ((w (_ BitVec 256)) )(let ((?x1800 (storage_t x_0 1 w)))
 (let ((?x7575 (storage_t x_0 2 w)))
 (= ?x7575 ?x1800))))
 ))
 (let (($x1219 (forall ((n (_ BitVec 6)) )(let ((?x8347 (sc_t 1)))
 (let ((?x6516 (bvadd (_ bv62 6) ?x8347)))
 (let (($x11603 (bvsle ?x6516 n)))
 (or (= (stack_t x_0 2 n) (stack_t x_0 1 n)) $x11603)))))
 ))
 (let (($x1064 (= ?x2714 (bvadd (_ bv1 6) (sc_t 1)))))
 (let (($x1228 (= (stack_t x_0 2 (bvadd (_ bv63 6) (sc_t 1))) (stack_t x_0 1 (bvadd (_ bv63 6) (sc_t 1))))))
 (let ((?x8347 (sc_t 1)))
 (let ((?x6516 (bvadd (_ bv62 6) ?x8347)))
 (let ((?x6090 (stack_t x_0 1 ?x6516)))
 (let (($x9448 (= $x3508 (or $x56 (not (= ((_ extract 6 6) (bvadd (_ bv1 7) (concat (_ bv0 1) ?x63))) (_ bv0 1)))))))
 (let (($x5547 (forall ((w (_ BitVec 256)) )(let ((?x9094 (storage_t x_0 0 w)))
 (let ((?x1800 (storage_t x_0 1 w)))
 (= ?x1800 ?x9094))))
 ))
 (let (($x6953 (forall ((n (_ BitVec 6)) )(let ((?x63 (sc_t 0)))
 (let (($x3267 (bvsle ?x63 n)))
 (or (= (stack_t x_0 1 n) (stack_t x_0 0 n)) $x3267))))
 ))
 (let (($x859 (= ?x8347 (bvadd (_ bv1 6) ?x63))))
 (let (($x4030 (= $x7172 (or (exc_halt_s 3) (not (bvsle (_ bv0 6) (bvadd (_ bv62 6) (sc_s 3))))))))
 (let (($x2453 (forall ((w (_ BitVec 256)) )(let ((?x8993 (storage_s x_0 3 w)))
 (let ((?x5964 (storage_s x_0 4 w)))
 (= ?x5964 ?x8993))))
 ))
 (let (($x7106 (forall ((n (_ BitVec 6)) )(let ((?x275 (sc_s 3)))
 (let ((?x10732 (bvadd (_ bv62 6) ?x275)))
 (let (($x7977 (bvsle ?x10732 n)))
 (or $x7977 (= (stack_s x_0 4 n) (stack_s x_0 3 n)))))))
 ))
 (let ((?x275 (sc_s 3)))
 (let ((?x6354 (bvadd (_ bv63 6) ?x275)))
 (let (($x3487 (= ?x4305 ?x6354)))
 (let ((?x3213 (stack_s x_0 3 ?x6354)))
 (let (($x8728 (= (stack_s x_0 4 (bvadd (_ bv63 6) ?x4305)) (bvadd ?x3213 (stack_s x_0 3 (bvadd (_ bv62 6) ?x275))))))
 (let (($x9346 (not (bvsle (_ bv0 6) (bvadd (_ bv61 6) (sc_s 2))))))
 (let (($x247 (exc_halt_s 2)))
 (let (($x2182 (or $x247 (not (= ((_ extract 6 6) (bvadd (_ bv1 7) (concat (_ bv0 1) (sc_s 2)))) (_ bv0 1))) $x9346)))
 (let (($x292 (exc_halt_s 3)))
 (let (($x10487 (forall ((w (_ BitVec 256)) )(let ((?x2842 (storage_s x_0 2 w)))
 (let ((?x8993 (storage_s x_0 3 w)))
 (= ?x8993 ?x2842))))
 ))
 (let (($x457 (forall ((n (_ BitVec 6)) )(let ((?x218 (sc_s 2)))
 (let ((?x971 (bvadd (_ bv61 6) ?x218)))
 (let (($x4870 (bvsle ?x971 n)))
 (or (= (stack_s x_0 3 n) (stack_s x_0 2 n)) $x4870)))))
 ))
 (let ((?x218 (sc_s 2)))
 (let ((?x4506 (bvadd (_ bv63 6) ?x218)))
 (let ((?x1248 (stack_s x_0 2 ?x4506)))
 (let (($x7066 (= (stack_s x_0 3 (bvadd (_ bv62 6) ?x218)) (stack_s x_0 2 (bvadd (_ bv62 6) ?x218)))))
 (let ((?x971 (bvadd (_ bv61 6) ?x218)))
 (let ((?x11564 (stack_s x_0 2 ?x971)))
 (let (($x2919 (not (= ((_ extract 6 6) (bvadd (_ bv1 7) (concat (_ bv0 1) (sc_s 1)))) (_ bv0 1)))))
 (let (($x189 (exc_halt_s 1)))
 (let (($x635 (forall ((w (_ BitVec 256)) )(let ((?x862 (storage_s x_0 1 w)))
 (let ((?x2842 (storage_s x_0 2 w)))
 (= ?x2842 ?x862))))
 ))
 (let (($x3938 (forall ((n (_ BitVec 6)) )(or (= (stack_s x_0 2 n) (stack_s x_0 1 n)) (bvsle (bvadd (_ bv63 6) (sc_s 1)) n)))
 ))
 (let (($x1224 (= ?x218 (bvadd (_ bv1 6) (sc_s 1)))))
 (let ((?x154 (sc_s 1)))
 (let ((?x7858 (bvadd (_ bv63 6) ?x154)))
 (let ((?x9803 (stack_s x_0 1 ?x7858)))
 (let (($x722 (= $x189 (or $x57 (not (= ((_ extract 6 6) (bvadd (_ bv1 7) (concat (_ bv0 1) ?x72))) (_ bv0 1)))))))
 (let (($x4545 (forall ((w (_ BitVec 256)) )(let ((?x828 (storage_s x_0 0 w)))
 (let ((?x862 (storage_s x_0 1 w)))
 (= ?x862 ?x828))))
 ))
 (let (($x1103 (forall ((n (_ BitVec 6)) )(or (bvsle (sc_s 0) n) (= (stack_s x_0 1 n) (stack_s x_0 0 n))))
 ))
 (let (($x7884 (= ?x154 (bvadd (_ bv1 6) ?x72))))
 (let (($x7073 (forall ((w (_ BitVec 256)) )(let ((?x828 (storage_s x_0 0 w)))
 (= ?x828 (_ bv0 256))))
 ))
 (let (($x1388 (= ?x6133 0)))
 (let (($x2751 (not $x57)))
 (let (($x6195 (= (stack_s x_0 0 (_ bv0 6)) x_0)))
 (let (($x8685 (= ?x72 (_ bv1 6))))
 (and $x8685 $x6195 $x2751 $x1388 $x7073 (= (stack_s x_0 1 ?x72) (_ bv0 256)) (= (used_gas_s x_0 1) (+ 3 ?x6133)) $x7884 $x1103 $x4545 $x722 (= ?x1248 ?x9803) (= (stack_s x_0 2 ?x7858) ?x9803) (= (used_gas_s x_0 2) (+ 3 (used_gas_s x_0 1))) $x1224 $x3938 $x635 (= $x247 (or $x189 $x2919 (not (bvsle (_ bv0 6) ?x7858)))) (= ?x3213 ?x11564) (= (stack_s x_0 3 ?x971) ?x11564) $x7066 (= (stack_s x_0 3 ?x4506) ?x1248) (= (used_gas_s x_0 3) (+ 3 (used_gas_s x_0 2))) (= ?x275 (bvadd (_ bv1 6) ?x218)) $x457 $x10487 (= $x292 $x2182) $x8728 (= (used_gas_s x_0 4) (+ 3 (used_gas_s x_0 3))) $x3487 $x7106 $x2453 $x4030 (= (stack_t x_0 1 ?x63) (_ bv0 256)) (= (used_gas_t x_0 1) (+ 3 ?x11161)) $x859 $x6953 $x5547 $x9448 (= (stack_t x_0 2 (bvadd (_ bv63 6) ?x2714)) ?x6090) (= (stack_t x_0 2 ?x6516) ?x6090) $x1228 (= (used_gas_t x_0 2) (+ 3 (used_gas_t x_0 1))) $x1064 $x1219 $x1091 $x9331 $x73 $x51 $x58 $x4521 $x10245 (not (and $x8664 $x4972 $x773 $x4124))))))))))))))))))))))))))))))))))))))))))))))))))))))))))))))))))))))))))
 )
(check-sat)
(get-proof)
